unsat
(:added-eqs                   3421798
 :arith-eq-adapter            4127
 :arith-bound-propagations-lp 163242
 :arith-conflicts             581
 :arith-diseq                 217521
 :arith-fixed-eqs             255768
 :arith-lower                 150389
 :arith-make-feasible         85265
 :arith-max-columns           1448
 :arith-max-rows              847
 :arith-offset-eqs            71537
 :arith-upper                 311811
 :binary-propagations         16616176
 :conflicts                   33461
 :decisions                   1898990
 :del-clause                  28005
 :elim-unconstrained          2
 :max-memory                  58.74
 :memory                      37.69
 :minimized-lits              308139
 :mk-bool-var                 23852
 :mk-clause                   45048
 :mk-clause-binary            65177
 :num-allocs                  454154791
 :num-checks                  1
 :propagations                22600760
 :restarts                    180
 :rlimit-count                58937494
 :time                        19.24
 :total-time                  19.45)
